55
1 0 84
2 0 57
2 1 76
3 0 41
3 1 70
3 2 16
4 0 85
4 1 57
4 2 56
4 3 3
5 0 62
5 1 12
5 2 14
5 3 49
5 4 85
6 0 49
6 1 46
6 2 79
6 3 88
6 4 80
6 5 33
7 0 3
7 1 93
7 2 29
7 3 65
7 4 18
7 5 51
7 6 45
8 0 75
8 1 89
8 2 50
8 3 58
8 4 10
8 5 62
8 6 15
8 7 48
9 0 13
9 1 10
9 2 15
9 3 56
9 4 91
9 5 37
9 6 29
9 7 37
9 8 95
10 0 83
10 1 49
10 2 58
10 3 52
10 4 95
10 5 23
10 6 72
10 7 3
10 8 72
10 9 69
11 0 34
11 1 47
11 2 94
11 3 100
11 4 28
11 5 100
11 6 80
11 7 53
11 8 31
11 9 11
11 10 59
12 0 4
12 1 33
12 2 96
12 3 33
12 4 23
12 5 79
12 6 82
12 7 66
12 8 87
12 9 8
12 10 80
12 11 33
13 0 65
13 1 15
13 2 17
13 3 14
13 4 44
13 5 41
13 6 93
13 7 9
13 8 42
13 9 79
13 10 66
13 11 20
13 12 58
14 0 58
14 1 56
14 2 21
14 3 31
14 4 20
14 5 34
14 6 2
14 7 8
14 8 33
14 9 35
14 10 78
14 11 59
14 12 76
14 13 2
15 0 83
15 1 82
15 2 100
15 3 73
15 4 100
15 5 69
15 6 67
15 7 39
15 8 83
15 9 59
15 10 93
15 11 52
15 12 92
15 13 71
15 14 63
16 0 65
16 1 35
16 2 99
16 3 92
16 4 19
16 5 76
16 6 32
16 7 57
16 8 17
16 9 87
16 10 95
16 11 3
16 12 49
16 13 17
16 14 55
16 15 18
17 0 59
17 1 27
17 2 31
17 3 32
17 4 67
17 5 13
17 6 87
17 7 57
17 8 89
17 9 97
17 10 14
17 11 9
17 12 9
17 13 90
17 14 21
17 15 57
17 16 5
18 0 28
18 1 1
18 2 94
18 3 42
18 4 48
18 5 28
18 6 25
18 7 57
18 8 59
18 9 4
18 10 28
18 11 22
18 12 14
18 13 79
18 14 11
18 15 56
18 16 92
18 17 91
19 0 87
19 1 13
19 2 51
19 3 4
19 4 43
19 5 80
19 6 11
19 7 58
19 8 61
19 9 42
19 10 68
19 11 35
19 12 30
19 13 27
19 14 53
19 15 13
19 16 43
19 17 15
19 18 94
20 0 83
20 1 85
20 2 72
20 3 38
20 4 13
20 5 45
20 6 68
20 7 44
20 8 10
20 9 11
20 10 63
20 11 46
20 12 18
20 13 23
20 14 85
20 15 55
20 16 29
20 17 10
20 18 28
20 19 58
21 0 12
21 1 27
21 2 45
21 3 12
21 4 91
21 5 55
21 6 20
21 7 47
21 8 19
21 9 56
21 10 36
21 11 42
21 12 16
21 13 79
21 14 70
21 15 26
21 16 98
21 17 54
21 18 99
21 19 5
21 20 98
22 0 40
22 1 80
22 2 46
22 3 41
22 4 94
22 5 44
22 6 45
22 7 58
22 8 92
22 9 23
22 10 65
22 11 27
22 12 7
22 13 89
22 14 38
22 15 78
22 16 31
22 17 86
22 18 42
22 19 3
22 20 2
22 21 72
23 0 8
23 1 68
23 2 56
23 3 13
23 4 25
23 5 7
23 6 35
23 7 89
23 8 37
23 9 30
23 10 2
23 11 2
23 12 56
23 13 18
23 14 62
23 15 6
23 16 34
23 17 44
23 18 80
23 19 91
23 20 64
23 21 60
23 22 39
24 0 91
24 1 10
24 2 51
24 3 96
24 4 3
24 5 83
24 6 18
24 7 14
24 8 27
24 9 8
24 10 70
24 11 83
24 12 82
24 13 55
24 14 17
24 15 62
24 16 39
24 17 33
24 18 1
24 19 99
24 20 84
24 21 57
24 22 10
24 23 12
25 0 5
25 1 46
25 2 59
25 3 43
25 4 60
25 5 15
25 6 29
25 7 15
25 8 80
25 9 58
25 10 5
25 11 44
25 12 96
25 13 44
25 14 49
25 15 9
25 16 9
25 17 76
25 18 3
25 19 59
25 20 45
25 21 67
25 22 7
25 23 22
25 24 46
26 0 59
26 1 71
26 2 44
26 3 9
26 4 67
26 5 43
26 6 69
26 7 60
26 8 30
26 9 62
26 10 43
26 11 27
26 12 17
26 13 88
26 14 95
26 15 60
26 16 89
26 17 37
26 18 40
26 19 98
26 20 43
26 21 78
26 22 1
26 23 92
26 24 79
26 25 69
27 0 36
27 1 18
27 2 62
27 3 20
27 4 28
27 5 64
27 6 69
27 7 39
27 8 83
27 9 54
27 10 57
27 11 73
27 12 17
27 13 44
27 14 76
27 15 63
27 16 48
27 17 23
27 18 23
27 19 85
27 20 23
27 21 77
27 22 5
27 23 11
27 24 35
27 25 19
27 26 54
28 0 52
28 1 18
28 2 83
28 3 35
28 4 52
28 5 28
28 6 38
28 7 1
28 8 29
28 9 35
28 10 73
28 11 19
28 12 2
28 13 1
28 14 51
28 15 62
28 16 53
28 17 7
28 18 42
28 19 30
28 20 90
28 21 50
28 22 78
28 23 58
28 24 33
28 25 45
28 26 86
28 27 19
29 0 25
29 1 81
29 2 7
29 3 31
29 4 47
29 5 17
29 6 90
29 7 23
29 8 90
29 9 32
29 10 21
29 11 26
29 12 1
29 13 57
29 14 43
29 15 83
29 16 26
29 17 47
29 18 58
29 19 4
29 20 98
29 21 79
29 22 23
29 23 11
29 24 53
29 25 79
29 26 86
29 27 35
29 28 73
30 0 22
30 1 14
30 2 71
30 3 78
30 4 50
30 5 20
30 6 14
30 7 34
30 8 99
30 9 85
30 10 5
30 11 33
30 12 43
30 13 31
30 14 72
30 15 66
30 16 81
30 17 100
30 18 68
30 19 7
30 20 44
30 21 21
30 22 100
30 23 51
30 24 75
30 25 4
30 26 26
30 27 11
30 28 20
30 29 75
31 0 66
31 1 40
31 2 45
31 3 28
31 4 42
31 5 31
31 6 46
31 7 84
31 8 53
31 9 43
31 10 27
31 11 69
31 12 36
31 13 13
31 14 64
31 15 48
31 16 87
31 17 82
31 18 84
31 19 92
31 20 34
31 21 39
31 22 7
31 23 41
31 24 83
31 25 49
31 26 57
31 27 14
31 28 84
31 29 37
31 30 29
32 0 67
32 1 84
32 2 29
32 3 54
32 4 99
32 5 70
32 6 79
32 7 21
32 8 67
32 9 17
32 10 34
32 11 37
32 12 40
32 13 84
32 14 12
32 15 31
32 16 30
32 17 40
32 18 99
32 19 45
32 20 55
32 21 2
32 22 82
32 23 55
32 24 42
32 25 14
32 26 87
32 27 17
32 28 60
32 29 15
32 30 84
32 31 46
33 0 45
33 1 54
33 2 61
33 3 51
33 4 68
33 5 67
33 6 9
33 7 95
33 8 38
33 9 14
33 10 55
33 11 60
33 12 60
33 13 45
33 14 21
33 15 21
33 16 78
33 17 47
33 18 23
33 19 68
33 20 78
33 21 77
33 22 21
33 23 33
33 24 31
33 25 1
33 26 86
33 27 100
33 28 96
33 29 83
33 30 49
33 31 15
33 32 23
34 0 92
34 1 47
34 2 16
34 3 12
34 4 32
34 5 73
34 6 65
34 7 35
34 8 4
34 9 14
34 10 32
34 11 13
34 12 54
34 13 10
34 14 68
34 15 5
34 16 76
34 17 87
34 18 89
34 19 67
34 20 58
34 21 39
34 22 23
34 23 68
34 24 12
34 25 55
34 26 15
34 27 84
34 28 2
34 29 43
34 30 93
34 31 4
34 32 76
34 33 55
35 0 24
35 1 10
35 2 70
35 3 50
35 4 25
35 5 32
35 6 18
35 7 40
35 8 12
35 9 81
35 10 9
35 11 95
35 12 85
35 13 1
35 14 71
35 15 12
35 16 98
35 17 13
35 18 59
35 19 76
35 20 59
35 21 31
35 22 91
35 23 62
35 24 50
35 25 63
35 26 52
35 27 51
35 28 73
35 29 54
35 30 67
35 31 77
35 32 57
35 33 7
35 34 6
36 0 11
36 1 81
36 2 2
36 3 68
36 4 54
36 5 99
36 6 1
36 7 77
36 8 98
36 9 74
36 10 96
36 11 62
36 12 74
36 13 53
36 14 59
36 15 19
36 16 1
36 17 47
36 18 81
36 19 75
36 20 94
36 21 90
36 22 12
36 23 96
36 24 1
36 25 94
36 26 61
36 27 21
36 28 91
36 29 25
36 30 82
36 31 99
36 32 87
36 33 65
36 34 84
36 35 69
37 0 28
37 1 45
37 2 36
37 3 18
37 4 18
37 5 41
37 6 28
37 7 85
37 8 71
37 9 92
37 10 61
37 11 22
37 12 74
37 13 76
37 14 26
37 15 9
37 16 26
37 17 35
37 18 18
37 19 93
37 20 29
37 21 62
37 22 3
37 23 5
37 24 29
37 25 77
37 26 11
37 27 60
37 28 31
37 29 53
37 30 50
37 31 50
37 32 55
37 33 70
37 34 37
37 35 94
37 36 96
38 0 15
38 1 9
38 2 95
38 3 87
38 4 55
38 5 57
38 6 10
38 7 9
38 8 36
38 9 92
38 10 61
38 11 86
38 12 7
38 13 40
38 14 14
38 15 45
38 16 58
38 17 15
38 18 15
38 19 42
38 20 21
38 21 36
38 22 66
38 23 88
38 24 79
38 25 67
38 26 72
38 27 16
38 28 83
38 29 13
38 30 92
38 31 77
38 32 64
38 33 86
38 34 80
38 35 56
38 36 93
38 37 31
39 0 100
39 1 46
39 2 33
39 3 81
39 4 39
39 5 22
39 6 76
39 7 75
39 8 61
39 9 97
39 10 62
39 11 53
39 12 89
39 13 68
39 14 33
39 15 25
39 16 79
39 17 58
39 18 50
39 19 66
39 20 42
39 21 39
39 22 91
39 23 92
39 24 30
39 25 78
39 26 6
39 27 15
39 28 82
39 29 33
39 30 90
39 31 80
39 32 100
39 33 13
39 34 7
39 35 43
39 36 3
39 37 63
39 38 68
40 0 24
40 1 78
40 2 39
40 3 63
40 4 61
40 5 23
40 6 92
40 7 79
40 8 44
40 9 56
40 10 63
40 11 64
40 12 7
40 13 30
40 14 73
40 15 18
40 16 88
40 17 82
40 18 56
40 19 30
40 20 19
40 21 6
40 22 54
40 23 74
40 24 80
40 25 22
40 26 91
40 27 41
40 28 39
40 29 86
40 30 89
40 31 84
40 32 57
40 33 69
40 34 95
40 35 76
40 36 32
40 37 88
40 38 17
40 39 30
41 0 21
41 1 69
41 2 9
41 3 23
41 4 42
41 5 84
41 6 46
41 7 22
41 8 70
41 9 89
41 10 69
41 11 7
41 12 55
41 13 43
41 14 4
41 15 33
41 16 49
41 17 1
41 18 80
41 19 86
41 20 5
41 21 6
41 22 97
41 23 16
41 24 80
41 25 15
41 26 24
41 27 59
41 28 81
41 29 45
41 30 29
41 31 72
41 32 6
41 33 19
41 34 59
41 35 52
41 36 85
41 37 46
41 38 37
41 39 8
41 40 21
42 0 73
42 1 45
42 2 10
42 3 85
42 4 77
42 5 84
42 6 34
42 7 16
42 8 8
42 9 67
42 10 68
42 11 22
42 12 82
42 13 62
42 14 61
42 15 99
42 16 86
42 17 88
42 18 27
42 19 5
42 20 60
42 21 58
42 22 29
42 23 45
42 24 52
42 25 89
42 26 9
42 27 73
42 28 68
42 29 37
42 30 43
42 31 11
42 32 56
42 33 44
42 34 26
42 35 35
42 36 9
42 37 74
42 38 35
42 39 82
42 40 69
42 41 89
43 0 9
43 1 77
43 2 52
43 3 7
43 4 36
43 5 87
43 6 59
43 7 16
43 8 68
43 9 52
43 10 20
43 11 51
43 12 73
43 13 41
43 14 75
43 15 62
43 16 9
43 17 36
43 18 24
43 19 17
43 20 74
43 21 58
43 22 75
43 23 30
43 24 72
43 25 64
43 26 68
43 27 99
43 28 3
43 29 92
43 30 74
43 31 100
43 32 41
43 33 32
43 34 84
43 35 68
43 36 97
43 37 48
43 38 35
43 39 69
43 40 59
43 41 84
43 42 49
44 0 30
44 1 44
44 2 18
44 3 70
44 4 89
44 5 29
44 6 59
44 7 33
44 8 93
44 9 43
44 10 93
44 11 98
44 12 30
44 13 15
44 14 29
44 15 27
44 16 98
44 17 26
44 18 95
44 19 2
44 20 34
44 21 20
44 22 88
44 23 97
44 24 58
44 25 52
44 26 84
44 27 51
44 28 8
44 29 83
44 30 43
44 31 23
44 32 64
44 33 60
44 34 93
44 35 12
44 36 98
44 37 34
44 38 50
44 39 67
44 40 92
44 41 3
44 42 30
44 43 35
45 0 3
45 1 80
45 2 50
45 3 18
45 4 84
45 5 34
45 6 11
45 7 29
45 8 76
45 9 46
45 10 51
45 11 72
45 12 34
45 13 76
45 14 59
45 15 97
45 16 56
45 17 40
45 18 20
45 19 86
45 20 29
45 21 39
45 22 33
45 23 83
45 24 94
45 25 87
45 26 5
45 27 70
45 28 15
45 29 32
45 30 28
45 31 61
45 32 5
45 33 74
45 34 76
45 35 51
45 36 15
45 37 12
45 38 1
45 39 45
45 40 22
45 41 73
45 42 98
45 43 71
45 44 59
46 0 28
46 1 68
46 2 34
46 3 69
46 4 69
46 5 14
46 6 67
46 7 79
46 8 11
46 9 28
46 10 87
46 11 30
46 12 63
46 13 72
46 14 76
46 15 9
46 16 49
46 17 55
46 18 27
46 19 55
46 20 96
46 21 52
46 22 26
46 23 57
46 24 13
46 25 24
46 26 73
46 27 48
46 28 30
46 29 40
46 30 52
46 31 76
46 32 68
46 33 99
46 34 8
46 35 95
46 36 57
46 37 5
46 38 92
46 39 7
46 40 34
46 41 54
46 42 68
46 43 72
46 44 71
46 45 20
47 0 20
47 1 24
47 2 32
47 3 62
47 4 76
47 5 99
47 6 52
47 7 83
47 8 51
47 9 47
47 10 78
47 11 13
47 12 82
47 13 75
47 14 31
47 15 94
47 16 81
47 17 64
47 18 69
47 19 100
47 20 63
47 21 44
47 22 62
47 23 16
47 24 2
47 25 16
47 26 10
47 27 37
47 28 25
47 29 61
47 30 62
47 31 100
47 32 55
47 33 87
47 34 29
47 35 36
47 36 58
47 37 78
47 38 75
47 39 100
47 40 56
47 41 66
47 42 50
47 43 30
47 44 2
47 45 32
47 46 97
48 0 40
48 1 53
48 2 10
48 3 37
48 4 46
48 5 60
48 6 55
48 7 21
48 8 76
48 9 70
48 10 77
48 11 100
48 12 21
48 13 24
48 14 83
48 15 53
48 16 16
48 17 71
48 18 61
48 19 80
48 20 79
48 21 50
48 22 92
48 23 40
48 24 25
48 25 8
48 26 97
48 27 88
48 28 41
48 29 43
48 30 26
48 31 66
48 32 93
48 33 6
48 34 72
48 35 21
48 36 1
48 37 93
48 38 56
48 39 71
48 40 93
48 41 15
48 42 3
48 43 41
48 44 32
48 45 19
48 46 32
48 47 35
49 0 86
49 1 5
49 2 15
49 3 27
49 4 62
49 5 65
49 6 67
49 7 74
49 8 38
49 9 30
49 10 94
49 11 84
49 12 75
49 13 6
49 14 5
49 15 11
49 16 69
49 17 32
49 18 45
49 19 35
49 20 87
49 21 2
49 22 35
49 23 63
49 24 10
49 25 16
49 26 7
49 27 61
49 28 45
49 29 65
49 30 76
49 31 92
49 32 12
49 33 62
49 34 87
49 35 32
49 36 98
49 37 74
49 38 17
49 39 78
49 40 43
49 41 14
49 42 50
49 43 81
49 44 94
49 45 2
49 46 25
49 47 57
49 48 44
50 0 100
50 1 27
50 2 69
50 3 50
50 4 89
50 5 2
50 6 76
50 7 81
50 8 30
50 9 74
50 10 94
50 11 50
50 12 32
50 13 24
50 14 17
50 15 39
50 16 27
50 17 51
50 18 92
50 19 6
50 20 16
50 21 16
50 22 42
50 23 29
50 24 37
50 25 58
50 26 84
50 27 55
50 28 66
50 29 12
50 30 95
50 31 27
50 32 67
50 33 85
50 34 6
50 35 23
50 36 37
50 37 57
50 38 35
50 39 26
50 40 9
50 41 23
50 42 95
50 43 14
50 44 24
50 45 88
50 46 27
50 47 29
50 48 83
50 49 82
51 0 56
51 1 74
51 2 19
51 3 56
51 4 54
51 5 43
51 6 76
51 7 77
51 8 77
51 9 78
51 10 74
51 11 33
51 12 96
51 13 22
51 14 95
51 15 19
51 16 38
51 17 91
51 18 20
51 19 56
51 20 27
51 21 7
51 22 9
51 23 73
51 24 58
51 25 50
51 26 93
51 27 55
51 28 79
51 29 20
51 30 24
51 31 23
51 32 38
51 33 28
51 34 11
51 35 21
51 36 26
51 37 50
51 38 25
51 39 2
51 40 43
51 41 12
51 42 58
51 43 59
51 44 31
51 45 93
51 46 64
51 47 29
51 48 83
51 49 61
51 50 25
52 0 73
52 1 13
52 2 85
52 3 16
52 4 9
52 5 31
52 6 83
52 7 55
52 8 45
52 9 84
52 10 95
52 11 73
52 12 49
52 13 35
52 14 97
52 15 38
52 16 45
52 17 1
52 18 1
52 19 10
52 20 27
52 21 72
52 22 99
52 23 20
52 24 28
52 25 81
52 26 32
52 27 93
52 28 81
52 29 96
52 30 24
52 31 62
52 32 69
52 33 47
52 34 91
52 35 51
52 36 49
52 37 29
52 38 15
52 39 3
52 40 83
52 41 25
52 42 45
52 43 96
52 44 32
52 45 43
52 46 75
52 47 79
52 48 81
52 49 71
52 50 98
52 51 5
53 0 9
53 1 84
53 2 39
53 3 51
53 4 16
53 5 59
53 6 24
53 7 51
53 8 71
53 9 90
53 10 22
53 11 83
53 12 57
53 13 92
53 14 90
53 15 93
53 16 6
53 17 53
53 18 86
53 19 27
53 20 60
53 21 71
53 22 39
53 23 19
53 24 8
53 25 70
53 26 92
53 27 63
53 28 68
53 29 97
53 30 59
53 31 47
53 32 36
53 33 39
53 34 59
53 35 44
53 36 98
53 37 21
53 38 10
53 39 74
53 40 92
53 41 48
53 42 12
53 43 97
53 44 67
53 45 31
53 46 45
53 47 92
53 48 59
53 49 3
53 50 49
53 51 28
53 52 4
54 0 94
54 1 85
54 2 43
54 3 44
54 4 53
54 5 76
54 6 82
54 7 95
54 8 17
54 9 85
54 10 51
54 11 90
54 12 58
54 13 75
54 14 8
54 15 17
54 16 81
54 17 57
54 18 81
54 19 100
54 20 41
54 21 36
54 22 83
54 23 13
54 24 90
54 25 86
54 26 82
54 27 13
54 28 96
54 29 27
54 30 30
54 31 38
54 32 82
54 33 98
54 34 60
54 35 100
54 36 76
54 37 21
54 38 8
54 39 64
54 40 69
54 41 25
54 42 28
54 43 18
54 44 32
54 45 59
54 46 91
54 47 48
54 48 32
54 49 20
54 50 91
54 51 78
54 52 42
54 53 81
